
Gurobi 9.5.1 (mac64[x86], Python) logging started Thu Mar 31 08:25:43 2022

Set parameter Username
Set parameter LogFile to value "gurobi.log"
Academic license - for non-commercial use only - expires 2023-03-25
